%int: n; % Número de días
%int: m; % Número de clientes
%array[1..n, 1..m] of int: demand; % Demanda diaria por cliente y día
%array[1..3] of int: costs; % Costos de producción (N, H, T)
%array[1..3] of int: capacities; % Capacidad diaria (N, H, T)
%array[1..m] of int: Ps; % Pago individual por cliente por MW
%float: min_demand_percentage = 0.50; % Porcentaje mínimo de demanda a cubrir
%float: hydro_max_percentage = 0.80; % Porcentaje máximo de capacidad para hidroeléctrica
%int: hydro_max_consecutive_days = 1; % Días consecutivos máximos a ese porcentaje


% Número de días
n = 5;

% Número de clientes
m = 5;  

% Demanda diaria por cliente y día (suponiendo una semana y 5 clientes)
demand = [| 150,  200, 170, 165, 180
           | 160,  180, 190, 155, 170
           | 155, 205,  165, 160, 175
           | 150,  210, 175, 155, 180
           | 155,  195, 180, 165, 185 |];

% Costos de producción (Nuclear, Hidroeléctrica, Térmica)
costs = [10, 15, 20]; 

% Capacidad diaria (Nuclear, Hidroeléctrica, Térmica)
capacities = [500, 400, 350];  

% Pago individual por cliente
Ps = [12, 17, 16, 15, 18];  

% Porcentaje mínimo de demanda a cubrir
min_demand_percentage = 0.55;

% Porcentaje máximo de capacidad para hidroeléctrica
hydro_max_percentage = 0.80;

% Días consecutivos máximos a ese porcentaje
hydro_max_consecutive_days = 2;


